(set-logic ALL)
(declare-const k Int)
(declare-fun %A () (_ BitVec k))
(declare-fun %B () (_ BitVec k))
(assert (not (let ((_let_0 (ite (bvsge %A %B) %A %B))) (not (= (ite (bvslt _let_0 %A) _let_0 %A) %A)))))
(check-sat)